; benchmark generated from python API
(set-info :status unknown)
(declare-datatypes ((RealState 0)) (((RMk1 (rval1 Real)) (RMk2 (rval2 Real)))))
 (assert
 (exists ((|v11:0_st| RealState) (val!6484 Real) )(exists ((|v10:1_st| RealState) (val!6485 Real) )(exists ((|v9:2_st| RealState) (val!6486 Real) )(exists ((|v8:3_st| RealState) (val!6487 Real) )(forall ((|v7:4| Real) )(forall ((|v6:5| Real) )(forall ((|v5:6| Real) )(forall ((|v4:7| Real) )(exists ((|v3:8_st| RealState) (val!6488 Real) )(exists ((|v2:9_st| RealState) (val!6489 Real) )(exists ((|v1:10_st| RealState) (val!6490 Real) )(exists ((|v0:11_st| RealState) (val!6491 Real) )(let ((?x3044 (- 20.0)))
 (let ((?x1890 (+ (+ (rval2 |v10:1_st|) (* (- 2.0) (rval2 |v1:10_st|))) (* (- 1.0) |v7:4|))))
 (let ((?x2387 (- 1.0)))
 (let ((?x2503 (- 3.0)))
 (let ((?x719 (* ?x2503 |v6:5|)))
 (let ((?x1278 (+ (+ (+ (* (- 5.0) |v5:6|) (* (- 9.0) |v7:4|)) ?x719) (* 18.0 |v4:7|))))
 (let ((?x470 (+ (+ (+ (* (- 16.0) |v4:7|) (* 4.0 |v6:5|)) (* 12.0 |v4:7|)) (* (- 10.0) (rval2 |v8:3_st|)))))
 (let ((?x2767 (* 7.0 |v4:7|)))
 (let ((?x2594 (* 0.0 |v4:7|)))
 (let ((?x3323 (+ (+ (+ (* 19.0 (rval2 |v11:0_st|)) (* 17.0 (rval2 |v9:2_st|))) ?x2594) ?x2767)))
 (let (($x2108 (and (and (<= ?x3323 10.0) (<= ?x470 12.0)) (and (<= ?x1278 ?x2387) (<= (+ ?x1890 (* 10.0 (rval2 |v10:1_st|))) ?x3044)))))
 (let ((?x2250 (rval2 |v10:1_st|)))
 (let ((?x184 (* 20.0 ?x2250)))
 (let ((?x721 (rval2 |v0:11_st|)))
 (let ((?x2947 (* 3.0 ?x721)))
 (let (($x2086 (<= (+ (+ (+ (* 0.0 ?x721) (* 20.0 (rval2 |v3:8_st|))) ?x2947) ?x184) 12.0)))
 (let ((?x149 (* 14.0 |v5:6|)))
 (let ((?x1962 (+ (+ (+ (* 19.0 (rval2 |v11:0_st|)) (* 7.0 |v7:4|)) (* (- 2.0) |v4:7|)) ?x149)))
 (let ((?x1633 (- 7.0)))
 (let ((?x521 (* 16.0 |v6:5|)))
 (let ((?x2397 (rval2 |v3:8_st|)))
 (let ((?x1644 (* 20.0 ?x2397)))
 (let (($x3102 (<= (+ (+ (+ (* 5.0 (rval2 |v2:9_st|)) (* (- 17.0) ?x2250)) ?x1644) ?x521) ?x1633)))
 (let ((?x2749 (- 17.0)))
 (let ((?x2569 (* 15.0 |v5:6|)))
 (let ((?x273 (rval2 |v2:9_st|)))
 (let ((?x715 (* 12.0 ?x273)))
 (let ((?x631 (+ (+ (+ (* (- 19.0) (rval2 |v1:10_st|)) (* (- 5.0) |v7:4|)) ?x715) ?x2569)))
 (let (($x1575 (and (and (or (<= ?x631 ?x2749) $x3102) (and (<= ?x1962 5.0) $x2086)) $x2108)))
 (let ((?x3138 (rval2 |v1:10_st|)))
 (let ((?x961 (- 2.0)))
 (let ((?x1360 (* ?x961 ?x3138)))
 (let ((?x3199 (+ (+ (+ (* (- 11.0) |v6:5|) (* 9.0 ?x2250)) (* 9.0 (rval2 |v8:3_st|))) ?x1360)))
 (let ((?x220 (rval2 |v11:0_st|)))
 (let ((?x3176 (* 9.0 ?x220)))
 (let ((?x2018 (+ (+ (+ (* ?x961 (rval2 |v8:3_st|)) (* 19.0 ?x721)) (* (- 14.0) |v4:7|)) ?x3176)))
 (let ((?x2648 (- 8.0)))
 (let ((?x3368 (+ (+ (+ (* 14.0 ?x220) (* ?x2503 |v4:7|)) (* 20.0 ?x273)) (* 0.0 ?x220))))
 (let ((?x2334 (+ (+ (+ (* 4.0 (rval2 |v8:3_st|)) (* 10.0 ?x220)) ?x2250) (* (- 10.0) |v7:4|))))
 (let (($x2588 (and (and (<= ?x2334 20.0) (<= ?x3368 ?x2648)) (and (<= ?x2018 ?x2387) (<= ?x3199 15.0)))))
 (let ((?x3071 (rval2 |v8:3_st|)))
 (let ((?x1070 (* 20.0 ?x3071)))
 (let (($x64 (<= (+ (+ (+ (* ?x1633 ?x220) (* ?x961 ?x721)) (* (- 15.0) ?x3138)) ?x1070) ?x2503)))
 (let ((?x1642 (- 18.0)))
 (let ((?x1971 (* 2.0 ?x2397)))
 (let (($x3039 (<= (+ (+ (+ (* 6.0 |v7:4|) (* 7.0 ?x3138)) (* 19.0 ?x3138)) ?x1971) ?x1642)))
 (let ((?x2486 (+ (+ (+ (* 19.0 ?x2397) (* (- 15.0) |v5:6|)) (* (- 15.0) ?x3138)) (* ?x1642 ?x273))))
 (let ((?x2027 (* 5.0 ?x273)))
 (let ((?x2864 (+ (+ (* (- 6.0) |v5:6|) (* (- 14.0) ?x273)) (* ?x2503 (rval2 |v9:2_st|)))))
 (let (($x492 (and (and (<= (+ ?x2864 ?x2027) 13.0) (<= ?x2486 2.0)) (and $x3039 $x64))))
 (let ((?x1319 (- 13.0)))
 (let (($x1091 (<= (+ (+ (+ ?x2767 ?x1070) (* 13.0 ?x220)) (* (- 5.0) |v6:5|)) ?x1319)))
 (let ((?x3147 (rval2 |v9:2_st|)))
 (let ((?x1156 (* 8.0 ?x3147)))
 (let (($x2968 (<= (+ (+ (+ (* ?x1633 ?x220) (* (- 14.0) |v5:6|)) (* 16.0 |v4:7|)) ?x1156) ?x3044)))
 (let ((?x139 (+ (+ (+ (* 6.0 ?x2397) (* 10.0 |v6:5|)) (* ?x2503 ?x3071)) (* ?x3044 ?x2250))))
 (let ((?x1774 (- 11.0)))
 (let ((?x2072 (- 14.0)))
 (let ((?x1957 (* ?x2072 |v4:7|)))
 (let (($x1200 (<= (+ (+ (+ (* ?x1774 |v7:4|) (* 11.0 |v7:4|)) (* ?x1633 |v6:5|)) ?x1957) ?x1774)))
 (let (($x2242 (<= (+ (+ (+ (* 3.0 ?x2397) (* ?x1774 ?x220)) ?x184) (* ?x1774 ?x3071)) ?x1319)))
 (let ((?x2572 (- 4.0)))
 (let ((?x1487 (* ?x2572 |v4:7|)))
 (let ((?x1491 (+ (+ (+ (* 19.0 |v7:4|) (* (- 12.0) ?x3147)) (* 4.0 ?x3138)) ?x1487)))
 (let ((?x2677 (+ (+ (+ (* ?x2503 ?x3138) (* ?x961 ?x3147)) (* ?x2387 |v6:5|)) (* ?x2072 ?x220))))
 (let ((?x189 (+ (+ (+ (* 13.0 ?x3071) (* (- 19.0) |v6:5|)) (* ?x2572 ?x3071)) (* ?x1633 ?x3138))))
 (let (($x1825 (and (and (<= ?x189 16.0) (<= ?x2677 ?x3044)) (and (<= ?x1491 ?x1633) $x2242))))
 (let ((?x3211 (* 7.0 ?x3138)))
 (let (($x681 (<= (+ (+ (+ (* ?x3044 ?x3147) (* 9.0 |v5:6|)) (* (- 12.0) |v6:5|)) ?x3211) 3.0)))
 (let ((?x2096 (- 10.0)))
 (let ((?x496 (- 19.0)))
 (let ((?x1076 (* ?x496 ?x2250)))
 (let ((?x709 (+ (+ (+ (* 3.0 ?x2397) (* 8.0 |v7:4|)) (* (- 12.0) ?x3147)) ?x1076)))
 (let ((?x2946 (- 12.0)))
 (let ((?x1415 (- 15.0)))
 (let ((?x915 (* ?x1415 |v4:7|)))
 (let (($x2118 (<= (+ (+ (+ (* ?x2749 ?x721) (* 12.0 |v5:6|)) (* ?x2648 ?x2250)) ?x915) ?x2946)))
 (let ((?x2001 (* ?x2648 |v4:7|)))
 (let (($x2813 (<= (+ (+ (+ (* 13.0 ?x2397) (* ?x2572 ?x3138)) (* (- 6.0) ?x3071)) ?x2001) 10.0)))
 (let ((?x1112 (* 19.0 |v6:5|)))
 (let (($x3407 (<= (+ (+ (+ (* ?x1774 |v4:7|) (* ?x1642 |v4:7|)) (* ?x496 ?x220)) ?x1112) ?x2387)))
 (let ((?x3394 (+ (+ (+ (* ?x1415 ?x3071) (* 0.0 ?x2397)) (* 0.0 ?x273)) (* (- 9.0) |v5:6|))))
 (let ((?x599 (- 6.0)))
 (let ((?x167 (+ (+ (+ (* 11.0 |v4:7|) (* ?x2946 ?x220)) (* ?x2648 ?x3138)) (* (- 9.0) ?x273))))
 (let (($x692 (<= (+ (+ (+ (* ?x599 |v7:4|) ?x1112) (* 11.0 ?x2397)) (* ?x1642 |v5:6|)) ?x496)))
 (let (($x323 (and (and (and $x692 (<= ?x167 ?x599)) (and (<= ?x3394 ?x2749) $x3407)) (and (and $x2813 $x2118) (and (<= ?x709 ?x2096) $x681)))))
 (let (($x557 (and $x323 (and $x1825 (and (and $x1200 (<= ?x139 17.0)) (and $x2968 $x1091))))))
 (let ((?x653 (* 14.0 ?x2397)))
 (let (($x1539 (<= (+ (+ (+ (* 2.0 ?x3147) (* 14.0 ?x3147)) (* 20.0 |v5:6|)) ?x653) 0.0)))
 (let ((?x1850 (* 6.0 |v7:4|)))
 (let (($x3056 (<= (+ (+ (+ (* 18.0 |v7:4|) (* ?x1774 ?x220)) (* 17.0 |v7:4|)) ?x1850) 5.0)))
 (let ((?x1531 (+ (+ (+ (* ?x2572 ?x721) (* 13.0 |v5:6|)) (* ?x599 ?x721)) (* 7.0 ?x3147))))
 (let (($x2037 (<= (+ (+ (+ (* 5.0 |v6:5|) (* 20.0 ?x721)) |v5:6|) (* ?x1633 ?x220)) ?x1319)))
 (let (($x1117 (<= (+ (+ (+ (* 13.0 ?x3138) (* ?x2503 ?x3138)) ?x719) (* 20.0 ?x721)) ?x2946)))
 (let ((?x437 (* 4.0 ?x220)))
 (let (($x3198 (<= (+ (+ (+ (* ?x1415 ?x3071) (* 12.0 ?x3138)) (* (- 5.0) ?x273)) ?x437) 18.0)))
 (let ((?x2139 (* ?x2946 ?x3147)))
 (let (($x2329 (<= (+ (+ (+ (* (- 5.0) ?x273) (* ?x2648 |v5:6|)) (* ?x1642 ?x3071)) ?x2139) ?x3044)))
 (let ((?x1477 (- 5.0)))
 (let ((?x3252 (* 12.0 ?x721)))
 (let (($x2212 (<= (+ (+ (+ (* 8.0 ?x220) (* 0.0 ?x2397)) (* 17.0 ?x3138)) ?x3252) ?x1477)))
 (let (($x789 (or (and (and $x2212 $x2329) (and $x3198 $x1117)) (or (and $x2037 (<= ?x1531 17.0)) (and $x3056 $x1539)))))
 (let ((?x2000 (+ (+ (+ (* ?x2648 ?x220) (* ?x1477 |v7:4|)) (* ?x2648 ?x3138)) (* 8.0 |v6:5|))))
 (let ((?x2580 (+ (+ (+ (* (- 9.0) ?x3071) (* 3.0 |v5:6|)) (* 11.0 ?x2250)) (* ?x1415 ?x721))))
 (let ((?x1709 (- 16.0)))
 (let ((?x413 (+ (+ (+ (* 6.0 ?x220) (* (- 9.0) ?x2250)) (* 3.0 |v5:6|)) (* ?x2096 ?x3147))))
 (let ((?x1416 (+ (+ (+ (* ?x3044 ?x3138) (* ?x1709 |v4:7|)) (* 4.0 ?x3071)) (* ?x1774 ?x273))))
 (let (($x3343 (and (and (<= ?x1416 15.0) (<= ?x413 ?x1709)) (and (<= ?x2580 5.0) (<= ?x2000 13.0)))))
 (let ((?x2613 (* 8.0 ?x2397)))
 (let (($x3370 (<= (+ (+ (+ (* ?x2946 |v5:6|) (* 16.0 |v7:4|)) (* ?x599 ?x3071)) ?x2613) ?x1709)))
 (let (($x858 (<= (+ (+ (+ (* ?x2749 |v7:4|) (* ?x496 |v4:7|)) ?x1076) (* 20.0 ?x273)) 19.0)))
 (let (($x1081 (<= (+ (+ (+ (* ?x961 |v5:6|) (* 0.0 |v6:5|)) ?x1360) (* ?x2096 ?x721)) ?x496)))
 (let ((?x2177 (* ?x496 |v6:5|)))
 (let (($x795 (<= (+ (+ (+ (* 9.0 ?x3138) (* 15.0 ?x3071)) (* ?x1709 ?x273)) ?x2177) ?x599)))
 (let ((?x2443 (* ?x1415 ?x3071)))
 (let (($x2847 (<= (+ (+ (+ (* ?x2946 ?x3138) (* 13.0 |v4:7|)) (* 16.0 ?x721)) ?x2443) ?x496)))
 (let ((?x1435 (* ?x2503 ?x3071)))
 (let (($x524 (<= (+ (+ (+ (* ?x3044 ?x3147) (* 11.0 ?x3071)) (* 2.0 ?x721)) ?x1435) ?x2096)))
 (let (($x1650 (<= (+ (+ (+ (* ?x2387 |v6:5|) (* ?x3044 ?x3138)) ?x273) (* 0.0 |v7:4|)) 14.0)))
 (let (($x248 (<= (+ (+ (+ (* ?x2749 ?x3138) (* 9.0 ?x3147)) ?x2001) (* ?x961 ?x3071)) 0.0)))
 (let ((?x27 (* 6.0 |v6:5|)))
 (let (($x2984 (<= (+ (+ (+ (* ?x599 |v7:4|) (* ?x1415 |v5:6|)) (* 19.0 ?x721)) ?x27) ?x1642)))
 (let ((?x1646 (* ?x599 |v5:6|)))
 (let (($x2854 (<= (+ (+ (+ (* 0.0 ?x3071) (* 11.0 |v4:7|)) (* ?x1642 |v4:7|)) ?x1646) 7.0)))
 (let ((?x1806 (* 10.0 |v7:4|)))
 (let (($x3204 (<= (+ (+ (+ (* 18.0 |v6:5|) (* 19.0 |v7:4|)) (* 18.0 ?x3147)) ?x1806) ?x1633)))
 (let (($x693 (<= (+ (+ (+ (* 5.0 |v7:4|) (* 15.0 ?x3138)) (* ?x2572 |v5:6|)) ?x3252) ?x1415)))
 (let (($x3182 (and (and (or $x693 $x3204) (and $x2854 $x2984)) (and (and $x248 $x1650) (and $x524 $x2847)))))
 (let (($x1720 (<= (+ (+ (+ (* ?x961 |v5:6|) (* ?x1415 |v5:6|)) (* 13.0 |v7:4|)) ?x521) ?x496)))
 (let (($x1591 (<= (+ (+ (+ ?x3176 (* (- 9.0) |v4:7|)) ?x721) (* 17.0 ?x3138)) 20.0)))
 (let ((?x20 (* ?x1774 |v7:4|)))
 (let (($x2780 (<= (+ (+ (+ (* 6.0 ?x3147) (* 7.0 ?x220)) (* 3.0 ?x220)) ?x20) ?x496)))
 (let (($x2253 (and (and $x2780 (<= (+ (+ (+ |v5:6| ?x1156) ?x3138) (* ?x961 |v5:6|)) ?x2572)) (and $x1591 $x1720))))
 (let ((?x2214 (* 6.0 ?x3071)))
 (let (($x730 (<= (+ (+ (+ (* 5.0 |v5:6|) (* 0.0 ?x721)) (* 10.0 ?x220)) ?x2214) 8.0)))
 (let (($x1166 (and (<= (+ (+ (+ (* ?x2648 ?x3071) ?x2214) ?x27) (* 11.0 ?x2397)) 20.0) $x730)))
 (let (($x1938 (<= (+ (+ (+ (* ?x1633 ?x220) (* ?x2072 ?x273)) ?x220) (* ?x2648 ?x3138)) ?x2503)))
 (let ((?x1119 (+ (+ (+ (* 2.0 ?x2250) (* ?x2749 ?x721)) (* ?x3044 |v7:4|)) (* 16.0 |v5:6|))))
 (let (($x389 (and (and (and (and (and (<= ?x1119 ?x1319) $x1938) $x1166) $x2253) $x3182) (and (and (or (and $x795 $x1081) (and $x858 $x3370)) $x3343) $x789))))
 (let (($x1161 (not (= |v0:11_st| (RMk1 val!6491)))))
 (let (($x1272 (not (= |v1:10_st| (RMk1 val!6490)))))
 (let (($x1346 (not (= |v2:9_st| (RMk1 val!6489)))))
 (let (($x2005 (not (= |v3:8_st| (RMk1 val!6488)))))
 (let (($x1367 (not (= |v8:3_st| (RMk1 val!6487)))))
 (let (($x3058 (not (= |v9:2_st| (RMk1 val!6486)))))
 (let (($x1294 (not (= |v10:1_st| (RMk1 val!6485)))))
 (let (($x2915 (not (= |v11:0_st| (RMk1 val!6484)))))
 (and $x2915 $x1294 $x3058 $x1367 $x2005 $x1346 $x1272 $x1161 (and $x389 (and $x557 (and (and $x492 $x2588) $x1575))))))))))))))))))))))))))))))))))))))))))))))))))))))))))))))))))))))))))))))))))))))))))))))))))))))))))))))))))))))))))))))))))))))))))))))))))))))))
 )
 )
 )
 )
 )
 )
 )
 )
 )
 )
 )
 )
(check-sat)
